<number of tasks>
70

<cycle time>
234

<task times>
1 17
2 66
3 54
4 52
5 6
6 88
7 21
8 128
9 68
10 70
11 85
12 21
13 134
14 135
15 94
16 90
17 50
18 143
19 19
20 54
21 50
22 40
23 73
24 12
25 152
26 42
27 45
28 74
29 26
30 11
31 31
32 50
33 102
34 46
35 35
36 40
37 2
38 1
39 3
40 13
41 16
42 25
43 21
44 43
45 30
46 83
47 89
48 56
49 59
50 43
51 11
52 26
53 44
54 121
55 38
56 68
57 22
58 7
59 16
60 32
61 25
62 27
63 156
64 28
65 15
66 26
67 18
68 72
69 23
70 27

<precedence relations>
1,2
1,41
1,69
1,70
2,3
3,4
3,68
4,6
4,7
5,6
5,24
5,30
6,8
7,8
8,12
9,10
10,11
11,12
12,13
12,14
13,23
14,23
15,16
16,17
16,18
17,19
18,19
19,20
19,22
19,57
20,21
21,23
22,23
23,25
23,31
23,33
24,25
25,26
25,27
25,28
25,29
26,35
27,35
28,35
29,35
30,31
31,32
32,35
33,34
34,35
35,36
35,44
35,48
35,51
35,53
35,56
35,60
35,61
35,62
36,37
37,38
38,39
39,40
40,42
41,42
42,43
43,50
44,45
45,46
46,47
47,50
48,49
49,50
51,52
52,54
53,54
54,55
57,58
58,59
59,60
61,65
62,63
63,64
64,65
64,66
64,67

<setup times forward>
1,9:10
1,10:4
1,11:3
1,15:10
1,16:4
1,17:5
1,18:3
1,19:5
1,21:9
1,57:7
1,58:7
1,59:7
1,69:4
1,70:4
2,9:10
2,10:4
2,11:3
2,15:10
2,16:4
2,17:5
2,18:3
2,19:5
2,21:9
2,57:7
2,58:7
2,59:7
2,69:4
2,70:4
3,9:10
3,10:4
3,11:3
3,15:10
3,16:4
3,17:5
3,18:3
3,19:5
3,21:9
3,57:7
3,58:7
3,59:7
3,68:10
3,69:4
3,70:4
4,6:4
4,7:4
4,9:10
4,10:4
4,11:3
4,15:10
4,16:4
4,17:5
4,18:3
4,19:5
4,21:9
4,57:7
4,58:7
4,59:7
4,68:10
4,69:4
4,70:4
5,6:4
5,7:4
5,9:10
5,10:4
5,11:3
5,15:10
5,16:4
5,17:5
5,18:3
5,19:5
5,21:9
5,57:7
5,58:7
5,59:7
5,68:10
5,69:4
5,70:4
6,8:8
6,9:14
6,10:8
6,11:7
6,15:14
6,17:1
6,18:7
6,19:1
6,20:4
6,21:5
6,22:4
6,24:4
6,30:4
6,41:4
6,57:11
6,58:11
6,59:11
6,68:14
6,69:8
7,5:4
7,8:8
7,9:14
7,10:8
7,11:7
7,15:14
7,17:1
7,18:7
7,19:1
7,20:4
7,21:5
7,22:4
7,24:4
7,30:4
7,41:4
7,57:11
7,58:11
7,59:11
7,68:14
7,69:8
8,9:6
8,11:1
8,12:9
8,15:6
8,16:8
8,17:9
8,18:1
8,19:9
8,20:4
8,21:13
8,22:4
8,24:4
8,30:4
8,41:4
8,57:3
8,58:3
8,59:3
8,68:6
8,70:8
9,1:10
9,2:10
9,3:10
9,4:10
9,5:10
9,6:14
9,7:14
9,8:6
9,10:6
9,16:14
9,17:15
9,18:7
9,19:15
9,20:10
9,21:19
9,22:10
9,24:10
9,30:10
9,41:10
9,57:3
9,58:3
9,59:3
9,69:6
9,70:14
10,1:4
10,2:4
10,3:4
10,4:4
10,5:4
10,6:8
10,7:8
10,11:1
10,15:6
10,16:8
10,17:9
10,18:1
10,19:9
10,20:4
10,21:13
10,22:4
10,24:4
10,30:4
10,41:4
10,57:3
10,58:3
10,59:3
10,68:6
10,70:8
11,1:3
11,2:3
11,3:3
11,4:3
11,5:3
11,6:7
11,7:7
11,8:1
11,12:8
11,15:7
11,16:7
11,17:8
11,19:8
11,20:3
11,21:12
11,22:3
11,24:3
11,30:3
11,41:3
11,57:4
11,58:4
11,59:4
11,68:7
11,69:1
11,70:7
12,13:5
12,15:15
12,16:1
12,18:8
12,20:5
12,21:4
12,22:5
12,24:5
12,30:5
12,41:5
12,57:12
12,58:12
12,59:12
12,68:15
12,69:9
12,70:1
13,14:5
13,15:10
13,16:4
13,17:5
13,18:3
13,19:5
13,21:9
13,23:9
13,57:7
13,58:7
13,59:7
13,68:10
13,69:4
13,70:4
14,13:5
14,15:15
14,16:1
14,18:8
14,20:5
14,21:4
14,22:5
14,23:4
14,24:5
14,30:5
14,41:5
14,57:12
14,58:12
14,59:12
14,68:15
14,69:9
14,70:1
15,1:10
15,2:10
15,3:10
15,4:10
15,5:10
15,6:14
15,7:14
15,8:6
15,10:6
15,11:7
15,12:15
15,13:10
15,14:15
15,16:14
15,24:10
15,30:10
15,41:10
15,69:6
15,70:14
16,1:4
16,2:4
16,3:4
16,4:4
16,5:4
16,8:8
16,9:14
16,10:8
16,11:7
16,12:1
16,13:4
16,14:1
16,17:1
16,18:7
16,24:4
16,30:4
16,41:4
16,68:14
16,69:8
17,1:5
17,2:5
17,3:5
17,4:5
17,5:5
17,6:1
17,7:1
17,8:9
17,9:15
17,10:9
17,11:8
17,13:5
17,18:8
17,24:5
17,30:5
17,41:5
17,68:15
17,69:9
17,70:1
18,1:3
18,2:3
18,3:3
18,4:3
18,5:3
18,6:7
18,7:7
18,8:1
18,9:7
18,10:1
18,12:8
18,13:3
18,14:8
18,17:8
18,19:8
18,24:3
18,30:3
18,41:3
18,68:7
18,69:1
18,70:7
19,1:5
19,2:5
19,3:5
19,4:5
19,5:5
19,6:1
19,7:1
19,8:9
19,9:15
19,10:9
19,11:8
19,13:5
19,20:5
19,22:5
19,24:5
19,30:5
19,41:5
19,57:12
19,68:15
19,69:9
19,70:1
20,6:4
20,7:4
20,8:4
20,9:10
20,10:4
20,11:3
20,12:5
20,14:5
20,21:9
20,57:7
20,58:7
20,59:7
20,68:10
20,69:4
20,70:4
21,1:9
21,2:9
21,3:9
21,4:9
21,5:9
21,6:5
21,7:5
21,8:13
21,9:19
21,10:13
21,11:12
21,12:4
21,13:9
21,14:4
21,22:9
21,24:9
21,30:9
21,41:9
21,57:16
21,58:16
21,59:16
21,68:19
21,69:13
21,70:5
22,6:4
22,7:4
22,8:4
22,9:10
22,10:4
22,11:3
22,12:5
22,14:5
22,21:9
22,23:9
22,57:7
22,58:7
22,59:7
22,68:10
22,69:4
22,70:4
23,24:9
23,25:15
23,30:9
23,31:15
23,41:9
23,57:16
23,58:16
23,59:16
23,68:19
23,69:13
23,70:5
24,6:4
24,7:4
24,8:4
24,9:10
24,10:4
24,11:3
24,12:5
24,14:5
24,15:10
24,16:4
24,17:5
24,18:3
24,19:5
24,21:9
24,23:9
24,25:6
24,31:6
24,32:6
24,33:9
24,34:4
24,57:7
24,58:7
24,59:7
24,68:10
24,69:4
24,70:4
25,26:10
25,27:10
25,28:10
25,29:10
25,30:6
25,33:15
25,34:10
25,41:6
25,57:1
25,58:1
25,59:1
25,68:4
25,69:2
25,70:10
26,30:4
26,31:10
26,32:10
26,33:5
26,35:7
26,41:4
26,57:11
26,58:11
26,59:11
26,68:14
26,69:8
27,30:4
27,31:10
27,32:10
27,33:5
27,35:7
27,41:4
27,57:11
27,58:11
27,59:11
27,68:14
27,69:8
28,30:4
28,31:10
28,32:10
28,33:5
28,35:7
28,41:4
28,57:11
28,58:11
28,59:11
28,68:14
28,69:8
29,30:4
29,31:10
29,32:10
29,33:5
29,35:7
29,41:4
29,57:11
29,58:11
29,59:11
29,68:14
29,69:8
30,6:4
30,7:4
30,8:4
30,9:10
30,10:4
30,11:3
30,12:5
30,14:5
30,15:10
30,16:4
30,17:5
30,18:3
30,19:5
30,21:9
30,23:9
30,25:6
30,26:4
30,27:4
30,28:4
30,29:4
30,31:6
30,33:9
30,34:4
30,57:7
30,58:7
30,59:7
30,68:10
30,69:4
30,70:4
31,24:6
31,26:10
31,27:10
31,28:10
31,29:10
31,33:15
31,34:10
31,41:6
31,57:1
31,58:1
31,59:1
31,68:4
31,69:2
31,70:10
32,24:6
32,26:10
32,27:10
32,28:10
32,29:10
32,33:15
32,34:10
32,35:17
32,41:6
32,57:1
32,58:1
32,59:1
32,68:4
32,69:2
32,70:10
33,24:9
33,25:15
33,26:5
33,27:5
33,28:5
33,29:5
33,30:9
33,31:15
33,32:15
33,34:5
33,41:9
33,57:16
33,58:16
33,59:16
33,68:19
33,69:13
33,70:5
34,24:4
34,25:10
34,30:4
34,31:10
34,32:10
34,35:7
34,41:4
34,57:11
34,58:11
34,59:11
34,68:14
34,69:8
35,36:14
35,41:11
35,48:14
35,53:10
35,56:18
35,57:18
35,58:18
35,59:18
35,60:18
35,61:18
35,68:21
35,69:15
35,70:7
36,41:3
36,44:14
36,45:14
36,46:14
36,49:4
36,51:14
36,52:4
36,53:4
36,54:14
36,55:14
36,56:4
36,57:4
36,58:4
36,59:4
36,60:4
36,61:4
36,62:14
36,63:4
36,65:16
36,66:16
36,67:16
36,68:7
36,69:1
36,70:7
37,41:3
37,44:14
37,45:14
37,46:14
37,49:4
37,51:14
37,52:4
37,53:4
37,54:14
37,55:14
37,56:4
37,57:4
37,58:4
37,59:4
37,60:4
37,61:4
37,62:14
37,63:4
37,65:16
37,66:16
37,67:16
37,68:7
37,69:1
37,70:7
38,41:3
38,44:14
38,45:14
38,46:14
38,49:4
38,51:14
38,52:4
38,53:4
38,54:14
38,55:14
38,56:4
38,57:4
38,58:4
38,59:4
38,60:4
38,61:4
38,62:14
38,63:4
38,65:16
38,66:16
38,67:16
38,68:7
38,69:1
38,70:7
39,41:3
39,44:14
39,45:14
39,46:14
39,49:4
39,51:14
39,52:4
39,53:4
39,54:14
39,55:14
39,56:4
39,57:4
39,58:4
39,59:4
39,60:4
39,61:4
39,62:14
39,63:4
39,65:16
39,66:16
39,67:16
39,68:7
39,69:1
39,70:7
40,41:3
40,42:16
40,44:14
40,45:14
40,46:14
40,49:4
40,51:14
40,52:4
40,53:4
40,54:14
40,55:14
40,56:4
40,57:4
40,58:4
40,59:4
40,60:4
40,61:4
40,62:14
40,63:4
40,65:16
40,66:16
40,67:16
40,68:7
40,69:1
40,70:7
41,6:4
41,7:4
41,8:4
41,9:10
41,10:4
41,11:3
41,12:5
41,14:5
41,15:10
41,16:4
41,17:5
41,18:3
41,19:5
41,21:9
41,23:9
41,25:6
41,26:4
41,27:4
41,28:4
41,29:4
41,31:6
41,32:6
41,33:9
41,34:4
41,35:11
41,36:3
41,37:3
41,38:3
41,39:3
41,40:3
41,42:13
41,44:11
41,45:11
41,46:11
41,47:3
41,48:3
41,49:7
41,51:11
41,52:1
41,53:1
41,54:11
41,55:11
41,56:7
41,57:7
41,58:7
41,59:7
41,60:7
41,61:7
41,62:11
41,63:1
41,64:3
41,65:13
41,66:13
41,67:13
41,68:10
41,69:4
41,70:4
42,43:2
42,44:2
42,45:2
42,46:2
42,47:16
42,48:16
42,49:20
42,51:2
42,52:12
42,53:12
42,54:2
42,55:2
42,56:20
42,57:20
42,58:20
42,59:20
42,60:20
42,61:20
42,62:2
42,63:12
42,64:16
42,68:23
42,69:17
42,70:9
43,47:14
43,48:14
43,49:18
43,52:10
43,53:10
43,56:18
43,57:18
43,58:18
43,59:18
43,60:18
43,61:18
43,63:10
43,64:14
43,65:2
43,66:2
43,67:2
43,68:21
43,69:15
43,70:7
44,36:14
44,37:14
44,38:14
44,39:14
44,40:14
44,41:11
44,42:2
44,48:14
44,49:18
44,52:10
44,53:10
44,56:18
44,57:18
44,58:18
44,59:18
44,60:18
44,61:18
44,63:10
44,64:14
44,65:2
44,66:2
44,67:2
44,68:21
44,69:15
44,70:7
45,36:14
45,37:14
45,38:14
45,39:14
45,40:14
45,41:11
45,42:2
45,48:14
45,49:18
45,52:10
45,53:10
45,56:18
45,57:18
45,58:18
45,59:18
45,60:18
45,61:18
45,63:10
45,64:14
45,65:2
45,66:2
45,67:2
45,68:21
45,69:15
45,70:7
46,36:14
46,37:14
46,38:14
46,39:14
46,40:14
46,41:11
46,42:2
46,47:14
46,48:14
46,49:18
46,52:10
46,53:10
46,56:18
46,57:18
46,58:18
46,59:18
46,60:18
46,61:18
46,63:10
46,64:14
46,65:2
46,66:2
46,67:2
46,68:21
46,69:15
46,70:7
47,41:3
47,42:16
47,43:14
47,49:4
47,50:14
47,51:14
47,52:4
47,53:4
47,54:14
47,55:14
47,56:4
47,57:4
47,58:4
47,59:4
47,60:4
47,61:4
47,62:14
47,63:4
47,65:16
47,66:16
47,67:16
47,68:7
47,69:1
47,70:7
48,41:3
48,42:16
48,43:14
48,44:14
48,45:14
48,46:14
48,49:4
48,51:14
48,52:4
48,53:4
48,54:14
48,55:14
48,56:4
48,57:4
48,58:4
48,59:4
48,60:4
48,61:4
48,62:14
48,63:4
48,65:16
48,66:16
48,67:16
48,68:7
48,69:1
48,70:7
49,36:4
49,37:4
49,38:4
49,39:4
49,40:4
49,41:7
49,42:20
49,43:18
49,44:18
49,45:18
49,46:18
49,47:4
49,50:18
49,51:18
49,52:8
49,53:8
49,54:18
49,55:18
49,62:18
49,63:8
49,64:4
49,65:20
49,66:20
49,67:20
49,68:3
49,69:3
49,70:11
50,52:10
50,53:10
50,56:18
50,57:18
50,58:18
50,59:18
50,60:18
50,61:18
50,63:10
50,64:14
50,65:2
50,66:2
50,67:2
50,68:21
50,69:15
50,70:7
51,36:14
51,37:14
51,38:14
51,39:14
51,40:14
51,41:11
51,42:2
51,47:14
51,48:14
51,49:18
51,52:10
51,53:10
51,56:18
51,57:18
51,58:18
51,59:18
51,60:18
51,61:18
51,63:10
51,64:14
51,65:2
51,66:2
51,67:2
51,68:21
51,69:15
51,70:7
52,36:4
52,37:4
52,38:4
52,39:4
52,40:4
52,41:1
52,42:12
52,43:10
52,44:10
52,45:10
52,46:10
52,47:4
52,48:4
52,49:8
52,50:10
52,54:10
52,56:8
52,57:8
52,58:8
52,59:8
52,60:8
52,61:8
52,62:10
52,64:4
52,65:12
52,66:12
52,67:12
52,68:11
52,69:5
52,70:3
53,36:4
53,37:4
53,38:4
53,39:4
53,40:4
53,41:1
53,42:12
53,43:10
53,44:10
53,45:10
53,46:10
53,47:4
53,48:4
53,49:8
53,50:10
53,51:10
53,54:10
53,56:8
53,57:8
53,58:8
53,59:8
53,60:8
53,61:8
53,62:10
53,64:4
53,65:12
53,66:12
53,67:12
53,68:11
53,69:5
53,70:3
54,36:14
54,37:14
54,38:14
54,39:14
54,40:14
54,41:11
54,42:2
54,47:14
54,48:14
54,49:18
54,56:18
54,57:18
54,58:18
54,59:18
54,60:18
54,61:18
54,63:10
54,64:14
54,65:2
54,66:2
54,67:2
54,68:21
54,69:15
54,70:7
55,36:14
55,37:14
55,38:14
55,39:14
55,40:14
55,41:11
55,42:2
55,47:14
55,48:14
55,49:18
55,56:18
55,57:18
55,58:18
55,59:18
55,60:18
55,61:18
55,63:10
55,64:14
55,65:2
55,66:2
55,67:2
55,68:21
55,69:15
55,70:7
56,36:4
56,37:4
56,38:4
56,39:4
56,40:4
56,41:7
56,42:20
56,43:18
56,44:18
56,45:18
56,46:18
56,47:4
56,48:4
56,50:18
56,51:18
56,52:8
56,53:8
56,54:18
56,55:18
56,62:18
56,63:8
56,64:4
56,65:20
56,66:20
56,67:20
56,68:3
56,69:3
56,70:11
57,1:7
57,2:7
57,3:7
57,4:7
57,5:7
57,6:11
57,7:11
57,8:3
57,9:3
57,10:3
57,11:4
57,12:12
57,13:7
57,14:12
57,20:7
57,21:16
57,22:7
57,23:16
57,24:7
57,25:1
57,26:11
57,27:11
57,28:11
57,29:11
57,30:7
57,31:1
57,32:1
57,33:16
57,34:11
57,35:18
57,36:4
57,37:4
57,38:4
57,39:4
57,40:4
57,41:7
57,42:20
57,43:18
57,44:18
57,45:18
57,46:18
57,47:4
57,48:4
57,50:18
57,51:18
57,52:8
57,53:8
57,54:18
57,55:18
57,62:18
57,63:8
57,64:4
57,65:20
57,66:20
57,67:20
57,68:3
57,69:3
57,70:11
58,1:7
58,2:7
58,3:7
58,4:7
58,5:7
58,6:11
58,7:11
58,8:3
58,9:3
58,10:3
58,11:4
58,12:12
58,13:7
58,14:12
58,20:7
58,21:16
58,22:7
58,23:16
58,24:7
58,25:1
58,26:11
58,27:11
58,28:11
58,29:11
58,30:7
58,31:1
58,32:1
58,33:16
58,34:11
58,35:18
58,36:4
58,37:4
58,38:4
58,39:4
58,40:4
58,41:7
58,42:20
58,43:18
58,44:18
58,45:18
58,46:18
58,47:4
58,48:4
58,50:18
58,51:18
58,52:8
58,53:8
58,54:18
58,55:18
58,62:18
58,63:8
58,64:4
58,65:20
58,66:20
58,67:20
58,68:3
58,69:3
58,70:11
59,1:7
59,2:7
59,3:7
59,4:7
59,5:7
59,6:11
59,7:11
59,8:3
59,9:3
59,10:3
59,11:4
59,12:12
59,13:7
59,14:12
59,20:7
59,21:16
59,22:7
59,23:16
59,24:7
59,25:1
59,26:11
59,27:11
59,28:11
59,29:11
59,30:7
59,31:1
59,32:1
59,33:16
59,34:11
59,35:18
59,36:4
59,37:4
59,38:4
59,39:4
59,40:4
59,41:7
59,42:20
59,43:18
59,44:18
59,45:18
59,46:18
59,47:4
59,48:4
59,50:18
59,51:18
59,52:8
59,53:8
59,54:18
59,55:18
59,62:18
59,63:8
59,64:4
59,65:20
59,66:20
59,67:20
59,68:3
59,69:3
59,70:11
60,36:4
60,37:4
60,38:4
60,39:4
60,40:4
60,41:7
60,42:20
60,43:18
60,44:18
60,45:18
60,46:18
60,47:4
60,48:4
60,50:18
60,51:18
60,52:8
60,53:8
60,54:18
60,55:18
60,62:18
60,63:8
60,64:4
60,65:20
60,66:20
60,67:20
60,68:3
60,69:3
60,70:11
61,36:4
61,37:4
61,38:4
61,39:4
61,40:4
61,41:7
61,42:20
61,43:18
61,44:18
61,45:18
61,46:18
61,47:4
61,48:4
61,50:18
61,51:18
61,52:8
61,53:8
61,54:18
61,55:18
61,62:18
61,63:8
61,64:4
61,65:20
61,66:20
61,67:20
61,68:3
61,69:3
61,70:11
62,36:14
62,37:14
62,38:14
62,39:14
62,40:14
62,41:11
62,42:2
62,47:14
62,48:14
62,49:18
62,52:10
62,53:10
62,56:18
62,57:18
62,58:18
62,59:18
62,60:18
62,61:18
62,63:10
62,68:21
62,69:15
62,70:7
63,36:4
63,37:4
63,38:4
63,39:4
63,40:4
63,41:1
63,42:12
63,43:10
63,44:10
63,45:10
63,46:10
63,47:4
63,48:4
63,49:8
63,50:10
63,51:10
63,54:10
63,55:10
63,56:8
63,57:8
63,58:8
63,59:8
63,60:8
63,61:8
63,64:4
63,68:11
63,69:5
63,70:3
64,41:3
64,42:16
64,43:14
64,44:14
64,45:14
64,46:14
64,49:4
64,50:14
64,51:14
64,52:4
64,53:4
64,54:14
64,55:14
64,56:4
64,57:4
64,58:4
64,59:4
64,60:4
64,61:4
64,65:16
64,66:16
64,67:16
64,68:7
64,69:1
64,70:7
65,36:16
65,37:16
65,38:16
65,39:16
65,40:16
65,41:13
65,43:2
65,44:2
65,45:2
65,46:2
65,47:16
65,48:16
65,49:20
65,50:2
65,51:2
65,52:12
65,53:12
65,54:2
65,55:2
65,56:20
65,57:20
65,58:20
65,59:20
65,60:20
65,68:23
65,69:17
65,70:9
66,36:16
66,37:16
66,38:16
66,39:16
66,40:16
66,41:13
66,43:2
66,44:2
66,45:2
66,46:2
66,47:16
66,48:16
66,49:20
66,50:2
66,51:2
66,52:12
66,53:12
66,54:2
66,55:2
66,56:20
66,57:20
66,58:20
66,59:20
66,60:20
66,61:20
66,68:23
66,69:17
66,70:9
67,36:16
67,37:16
67,38:16
67,39:16
67,40:16
67,41:13
67,43:2
67,44:2
67,45:2
67,46:2
67,47:16
67,48:16
67,49:20
67,50:2
67,51:2
67,52:12
67,53:12
67,54:2
67,55:2
67,56:20
67,57:20
67,58:20
67,59:20
67,60:20
67,61:20
67,68:23
67,69:17
67,70:9
68,4:10
68,5:10
68,6:14
68,7:14
68,8:6
68,10:6
68,11:7
68,12:15
68,13:10
68,14:15
68,16:14
68,17:15
68,18:7
68,19:15
68,20:10
68,21:19
68,22:10
68,23:19
68,24:10
68,25:4
68,26:14
68,27:14
68,28:14
68,29:14
68,30:10
68,31:4
68,32:4
68,33:19
68,34:14
68,35:21
68,36:7
68,37:7
68,38:7
68,39:7
68,40:7
68,41:10
68,42:23
68,43:21
68,44:21
68,45:21
68,46:21
68,47:7
68,48:7
68,49:3
68,50:21
68,51:21
68,52:11
68,53:11
68,54:21
68,55:21
68,56:3
68,57:3
68,58:3
68,59:3
68,60:3
68,61:3
68,62:21
68,63:11
68,64:7
68,65:23
68,66:23
68,67:23
68,69:6
68,70:14
69,2:4
69,3:4
69,4:4
69,5:4
69,6:8
69,7:8
69,9:6
69,11:1
69,12:9
69,13:4
69,14:9
69,15:6
69,16:8
69,17:9
69,18:1
69,19:9
69,20:4
69,21:13
69,22:4
69,23:13
69,24:4
69,25:2
69,26:8
69,27:8
69,28:8
69,29:8
69,30:4
69,31:2
69,32:2
69,33:13
69,34:8
69,35:15
69,36:1
69,37:1
69,38:1
69,39:1
69,40:1
69,41:4
69,42:17
69,43:15
69,44:15
69,45:15
69,46:15
69,47:1
69,48:1
69,49:3
69,50:15
69,51:15
69,52:5
69,53:5
69,54:15
69,55:15
69,56:3
69,57:3
69,58:3
69,59:3
69,60:3
69,61:3
69,62:15
69,63:5
69,64:1
69,65:17
69,66:17
69,67:17
69,68:6
69,70:8
70,2:4
70,3:4
70,4:4
70,5:4
70,8:8
70,9:14
70,10:8
70,11:7
70,12:1
70,13:4
70,14:1
70,15:14
70,17:1
70,18:7
70,19:1
70,20:4
70,21:5
70,22:4
70,23:5
70,24:4
70,25:10
70,30:4
70,31:10
70,32:10
70,33:5
70,35:7
70,36:7
70,37:7
70,38:7
70,39:7
70,40:7
70,41:4
70,42:9
70,43:7
70,44:7
70,45:7
70,46:7
70,47:7
70,48:7
70,49:11
70,50:7
70,51:7
70,52:3
70,53:3
70,54:7
70,55:7
70,56:11
70,57:11
70,58:11
70,59:11
70,60:11
70,61:11
70,62:7
70,63:3
70,64:7
70,65:9
70,66:9
70,67:9
70,68:14
70,69:8

<setup times backward>
1,16:4
1,17:5
1,19:5
1,21:9
2,16:4
2,17:5
2,19:5
2,21:9
2,70:4
3,16:4
3,17:5
3,19:5
3,21:9
3,70:4
4,16:4
4,17:5
4,19:5
4,21:9
4,70:4
5,7:4
5,16:4
5,17:5
5,19:5
5,21:9
5,70:4
6,17:1
6,19:1
6,21:5
7,17:1
7,19:1
7,21:5
8,1:4
8,2:4
8,3:4
8,4:4
8,5:4
8,6:8
8,7:8
8,11:1
8,16:8
8,17:9
8,18:1
8,19:9
8,20:4
8,21:13
8,22:4
8,24:4
8,30:4
8,41:4
8,70:8
9,1:10
9,2:10
9,3:10
9,4:10
9,5:10
9,6:14
9,7:14
9,8:6
9,16:14
9,17:15
9,18:7
9,19:15
9,20:10
9,21:19
9,22:10
9,24:10
9,30:10
9,41:10
9,57:3
9,58:3
9,59:3
9,69:6
9,70:14
10,1:4
10,2:4
10,3:4
10,4:4
10,5:4
10,6:8
10,7:8
10,16:8
10,17:9
10,18:1
10,19:9
10,20:4
10,21:13
10,22:4
10,24:4
10,30:4
10,41:4
10,70:8
11,1:3
11,2:3
11,3:3
11,4:3
11,5:3
11,6:7
11,7:7
11,16:7
11,17:8
11,19:8
11,20:3
11,21:12
11,22:3
11,24:3
11,30:3
11,41:3
11,70:7
12,21:4
13,6:4
13,7:4
13,12:5
13,14:5
13,16:4
13,17:5
13,19:5
13,21:9
13,70:4
14,21:4
15,1:10
15,2:10
15,3:10
15,4:10
15,5:10
15,6:14
15,7:14
15,8:6
15,10:6
15,11:7
15,12:15
15,13:10
15,14:15
15,24:10
15,30:10
15,41:10
15,69:6
15,70:14
16,12:1
16,14:1
18,1:3
18,2:3
18,3:3
18,4:3
18,5:3
18,6:7
18,7:7
18,12:8
18,13:3
18,14:8
18,16:7
18,17:8
18,24:3
18,30:3
18,41:3
18,70:7
20,6:4
20,7:4
20,12:5
20,14:5
20,16:4
20,17:5
20,19:5
20,70:4
22,6:4
22,7:4
22,12:5
22,14:5
22,16:4
22,17:5
22,19:5
22,21:9
22,70:4
24,6:4
24,7:4
24,12:5
24,14:5
24,16:4
24,17:5
24,19:5
24,21:9
24,23:9
24,33:9
24,34:4
24,70:4
25,1:6
25,2:6
25,3:6
25,4:6
25,5:6
25,6:10
25,7:10
25,8:2
25,10:2
25,11:3
25,12:11
25,13:6
25,14:11
25,16:10
25,17:11
25,18:3
25,19:11
25,20:6
25,21:15
25,22:6
25,23:15
25,24:6
25,30:6
25,33:15
25,34:10
25,41:6
25,69:2
25,70:10
26,12:1
26,14:1
26,17:1
26,19:1
26,21:5
26,23:5
26,33:5
27,12:1
27,14:1
27,17:1
27,19:1
27,21:5
27,23:5
27,33:5
28,12:1
28,14:1
28,17:1
28,19:1
28,21:5
28,23:5
28,33:5
29,12:1
29,14:1
29,17:1
29,19:1
29,21:5
29,23:5
29,33:5
30,6:4
30,7:4
30,12:5
30,14:5
30,16:4
30,17:5
30,19:5
30,21:9
30,23:9
30,26:4
30,27:4
30,28:4
30,29:4
30,33:9
30,34:4
30,70:4
31,1:6
31,2:6
31,3:6
31,4:6
31,5:6
31,6:10
31,7:10
31,8:2
31,10:2
31,11:3
31,12:11
31,13:6
31,14:11
31,16:10
31,17:11
31,18:3
31,19:11
31,20:6
31,21:15
31,22:6
31,23:15
31,24:6
31,26:10
31,27:10
31,28:10
31,29:10
31,30:6
31,33:15
31,34:10
31,41:6
31,69:2
31,70:10
32,1:6
32,2:6
32,3:6
32,4:6
32,5:6
32,6:10
32,7:10
32,8:2
32,10:2
32,11:3
32,12:11
32,13:6
32,14:11
32,16:10
32,17:11
32,18:3
32,19:11
32,20:6
32,21:15
32,22:6
32,23:15
32,24:6
32,26:10
32,27:10
32,28:10
32,29:10
32,30:6
32,33:15
32,34:10
32,41:6
32,69:2
32,70:10
34,12:1
34,14:1
34,17:1
34,19:1
34,21:5
34,23:5
34,33:5
36,1:3
36,2:3
36,3:3
36,4:3
36,5:3
36,6:7
36,7:7
36,12:8
36,13:3
36,14:8
36,16:7
36,17:8
36,19:8
36,20:3
36,21:12
36,22:3
36,23:12
36,24:3
36,26:7
36,27:7
36,28:7
36,29:7
36,30:3
36,33:12
36,34:7
36,35:14
36,41:3
36,44:14
36,45:14
36,46:14
36,51:14
36,52:4
36,53:4
36,54:14
36,55:14
36,62:14
36,63:4
36,65:16
36,66:16
36,67:16
36,70:7
37,1:3
37,2:3
37,3:3
37,4:3
37,5:3
37,6:7
37,7:7
37,12:8
37,13:3
37,14:8
37,16:7
37,17:8
37,19:8
37,20:3
37,21:12
37,22:3
37,23:12
37,24:3
37,26:7
37,27:7
37,28:7
37,29:7
37,30:3
37,33:12
37,34:7
37,35:14
37,41:3
37,44:14
37,45:14
37,46:14
37,51:14
37,52:4
37,53:4
37,54:14
37,55:14
37,62:14
37,63:4
37,65:16
37,66:16
37,67:16
37,70:7
38,1:3
38,2:3
38,3:3
38,4:3
38,5:3
38,6:7
38,7:7
38,12:8
38,13:3
38,14:8
38,16:7
38,17:8
38,19:8
38,20:3
38,21:12
38,22:3
38,23:12
38,24:3
38,26:7
38,27:7
38,28:7
38,29:7
38,30:3
38,33:12
38,34:7
38,35:14
38,41:3
38,44:14
38,45:14
38,46:14
38,51:14
38,52:4
38,53:4
38,54:14
38,55:14
38,62:14
38,63:4
38,65:16
38,66:16
38,67:16
38,70:7
39,1:3
39,2:3
39,3:3
39,4:3
39,5:3
39,6:7
39,7:7
39,12:8
39,13:3
39,14:8
39,16:7
39,17:8
39,19:8
39,20:3
39,21:12
39,22:3
39,23:12
39,24:3
39,26:7
39,27:7
39,28:7
39,29:7
39,30:3
39,33:12
39,34:7
39,35:14
39,41:3
39,44:14
39,45:14
39,46:14
39,51:14
39,52:4
39,53:4
39,54:14
39,55:14
39,62:14
39,63:4
39,65:16
39,66:16
39,67:16
39,70:7
40,1:3
40,2:3
40,3:3
40,4:3
40,5:3
40,6:7
40,7:7
40,12:8
40,13:3
40,14:8
40,16:7
40,17:8
40,19:8
40,20:3
40,21:12
40,22:3
40,23:12
40,24:3
40,26:7
40,27:7
40,28:7
40,29:7
40,30:3
40,33:12
40,34:7
40,35:14
40,41:3
40,44:14
40,45:14
40,46:14
40,51:14
40,52:4
40,53:4
40,54:14
40,55:14
40,62:14
40,63:4
40,65:16
40,66:16
40,67:16
40,70:7
41,6:4
41,7:4
41,12:5
41,14:5
41,16:4
41,17:5
41,19:5
41,21:9
41,23:9
41,26:4
41,27:4
41,28:4
41,29:4
41,33:9
41,34:4
41,35:11
41,44:11
41,45:11
41,46:11
41,51:11
41,52:1
41,53:1
41,54:11
41,55:11
41,62:11
41,63:1
41,65:13
41,66:13
41,67:13
41,70:4
43,42:2
43,65:2
43,66:2
43,67:2
44,42:2
44,65:2
44,66:2
44,67:2
45,42:2
45,65:2
45,66:2
45,67:2
46,42:2
46,65:2
46,66:2
46,67:2
47,1:3
47,2:3
47,3:3
47,4:3
47,5:3
47,6:7
47,7:7
47,12:8
47,13:3
47,14:8
47,16:7
47,17:8
47,19:8
47,20:3
47,21:12
47,22:3
47,23:12
47,24:3
47,26:7
47,27:7
47,28:7
47,29:7
47,30:3
47,33:12
47,34:7
47,35:14
47,41:3
47,42:16
47,43:14
47,44:14
47,45:14
47,46:14
47,51:14
47,52:4
47,53:4
47,54:14
47,55:14
47,62:14
47,63:4
47,65:16
47,66:16
47,67:16
47,70:7
48,1:3
48,2:3
48,3:3
48,4:3
48,5:3
48,6:7
48,7:7
48,12:8
48,13:3
48,14:8
48,16:7
48,17:8
48,19:8
48,20:3
48,21:12
48,22:3
48,23:12
48,24:3
48,26:7
48,27:7
48,28:7
48,29:7
48,30:3
48,33:12
48,34:7
48,35:14
48,41:3
48,42:16
48,43:14
48,44:14
48,45:14
48,46:14
48,51:14
48,52:4
48,53:4
48,54:14
48,55:14
48,62:14
48,63:4
48,65:16
48,66:16
48,67:16
48,70:7
49,1:7
49,2:7
49,3:7
49,4:7
49,5:7
49,6:11
49,7:11
49,8:3
49,10:3
49,11:4
49,12:12
49,13:7
49,14:12
49,16:11
49,17:12
49,18:4
49,19:12
49,20:7
49,21:16
49,22:7
49,23:16
49,24:7
49,25:1
49,26:11
49,27:11
49,28:11
49,29:11
49,30:7
49,31:1
49,32:1
49,33:16
49,34:11
49,35:18
49,36:4
49,37:4
49,38:4
49,39:4
49,40:4
49,41:7
49,42:20
49,43:18
49,44:18
49,45:18
49,46:18
49,47:4
49,48:4
49,51:18
49,52:8
49,53:8
49,54:18
49,55:18
49,62:18
49,63:8
49,64:4
49,65:20
49,66:20
49,67:20
49,69:3
49,70:11
50,42:2
50,65:2
50,66:2
50,67:2
51,42:2
51,65:2
51,66:2
51,67:2
52,6:3
52,7:3
52,12:4
52,14:4
52,16:3
52,17:4
52,19:4
52,21:8
52,23:8
52,26:3
52,27:3
52,28:3
52,29:3
52,33:8
52,34:3
52,35:10
52,42:12
52,43:10
52,44:10
52,45:10
52,46:10
52,50:10
52,51:10
52,62:10
52,65:12
52,66:12
52,67:12
52,70:3
53,6:3
53,7:3
53,12:4
53,14:4
53,16:3
53,17:4
53,19:4
53,21:8
53,23:8
53,26:3
53,27:3
53,28:3
53,29:3
53,33:8
53,34:3
53,35:10
53,42:12
53,43:10
53,44:10
53,45:10
53,46:10
53,50:10
53,51:10
53,62:10
53,65:12
53,66:12
53,67:12
53,70:3
54,42:2
54,65:2
54,66:2
54,67:2
55,42:2
55,65:2
55,66:2
55,67:2
56,1:7
56,2:7
56,3:7
56,4:7
56,5:7
56,6:11
56,7:11
56,8:3
56,10:3
56,11:4
56,12:12
56,13:7
56,14:12
56,16:11
56,17:12
56,18:4
56,19:12
56,20:7
56,21:16
56,22:7
56,23:16
56,24:7
56,25:1
56,26:11
56,27:11
56,28:11
56,29:11
56,30:7
56,31:1
56,32:1
56,33:16
56,34:11
56,35:18
56,36:4
56,37:4
56,38:4
56,39:4
56,40:4
56,41:7
56,42:20
56,43:18
56,44:18
56,45:18
56,46:18
56,47:4
56,48:4
56,50:18
56,51:18
56,52:8
56,53:8
56,54:18
56,55:18
56,62:18
56,63:8
56,64:4
56,65:20
56,66:20
56,67:20
56,69:3
56,70:11
57,1:7
57,2:7
57,3:7
57,4:7
57,5:7
57,6:11
57,7:11
57,8:3
57,10:3
57,11:4
57,12:12
57,13:7
57,14:12
57,16:11
57,17:12
57,18:4
57,19:12
57,20:7
57,21:16
57,22:7
57,23:16
57,24:7
57,25:1
57,26:11
57,27:11
57,28:11
57,29:11
57,30:7
57,31:1
57,32:1
57,33:16
57,34:11
57,35:18
57,36:4
57,37:4
57,38:4
57,39:4
57,40:4
57,41:7
57,42:20
57,43:18
57,44:18
57,45:18
57,46:18
57,47:4
57,48:4
57,50:18
57,51:18
57,52:8
57,53:8
57,54:18
57,55:18
57,62:18
57,63:8
57,64:4
57,65:20
57,66:20
57,67:20
57,69:3
57,70:11
58,1:7
58,2:7
58,3:7
58,4:7
58,5:7
58,6:11
58,7:11
58,8:3
58,10:3
58,11:4
58,12:12
58,13:7
58,14:12
58,16:11
58,17:12
58,18:4
58,19:12
58,20:7
58,21:16
58,22:7
58,23:16
58,24:7
58,25:1
58,26:11
58,27:11
58,28:11
58,29:11
58,30:7
58,31:1
58,32:1
58,33:16
58,34:11
58,35:18
58,36:4
58,37:4
58,38:4
58,39:4
58,40:4
58,41:7
58,42:20
58,43:18
58,44:18
58,45:18
58,46:18
58,47:4
58,48:4
58,50:18
58,51:18
58,52:8
58,53:8
58,54:18
58,55:18
58,62:18
58,63:8
58,64:4
58,65:20
58,66:20
58,67:20
58,69:3
58,70:11
59,1:7
59,2:7
59,3:7
59,4:7
59,5:7
59,6:11
59,7:11
59,8:3
59,10:3
59,11:4
59,12:12
59,13:7
59,14:12
59,16:11
59,17:12
59,18:4
59,19:12
59,20:7
59,21:16
59,22:7
59,23:16
59,24:7
59,25:1
59,26:11
59,27:11
59,28:11
59,29:11
59,30:7
59,31:1
59,32:1
59,33:16
59,34:11
59,35:18
59,36:4
59,37:4
59,38:4
59,39:4
59,40:4
59,41:7
59,42:20
59,43:18
59,44:18
59,45:18
59,46:18
59,47:4
59,48:4
59,50:18
59,51:18
59,52:8
59,53:8
59,54:18
59,55:18
59,62:18
59,63:8
59,64:4
59,65:20
59,66:20
59,67:20
59,69:3
59,70:11
60,1:7
60,2:7
60,3:7
60,4:7
60,5:7
60,6:11
60,7:11
60,8:3
60,10:3
60,11:4
60,12:12
60,13:7
60,14:12
60,16:11
60,17:12
60,18:4
60,19:12
60,20:7
60,21:16
60,22:7
60,23:16
60,24:7
60,25:1
60,26:11
60,27:11
60,28:11
60,29:11
60,30:7
60,31:1
60,32:1
60,33:16
60,34:11
60,35:18
60,36:4
60,37:4
60,38:4
60,39:4
60,40:4
60,41:7
60,42:20
60,43:18
60,44:18
60,45:18
60,46:18
60,47:4
60,48:4
60,50:18
60,51:18
60,52:8
60,53:8
60,54:18
60,55:18
60,62:18
60,63:8
60,64:4
60,65:20
60,66:20
60,67:20
60,69:3
60,70:11
61,1:7
61,2:7
61,3:7
61,4:7
61,5:7
61,6:11
61,7:11
61,8:3
61,10:3
61,11:4
61,12:12
61,13:7
61,14:12
61,16:11
61,17:12
61,18:4
61,19:12
61,20:7
61,21:16
61,22:7
61,23:16
61,24:7
61,25:1
61,26:11
61,27:11
61,28:11
61,29:11
61,30:7
61,31:1
61,32:1
61,33:16
61,34:11
61,35:18
61,36:4
61,37:4
61,38:4
61,39:4
61,40:4
61,41:7
61,42:20
61,43:18
61,44:18
61,45:18
61,46:18
61,47:4
61,48:4
61,50:18
61,51:18
61,52:8
61,53:8
61,54:18
61,55:18
61,62:18
61,63:8
61,64:4
61,66:20
61,67:20
61,69:3
61,70:11
62,42:2
63,6:3
63,7:3
63,12:4
63,14:4
63,16:3
63,17:4
63,19:4
63,21:8
63,23:8
63,26:3
63,27:3
63,28:3
63,29:3
63,33:8
63,34:3
63,35:10
63,42:12
63,43:10
63,44:10
63,45:10
63,46:10
63,50:10
63,51:10
63,54:10
63,55:10
63,62:10
63,70:3
64,1:3
64,2:3
64,3:3
64,4:3
64,5:3
64,6:7
64,7:7
64,12:8
64,13:3
64,14:8
64,16:7
64,17:8
64,19:8
64,20:3
64,21:12
64,22:3
64,23:12
64,24:3
64,26:7
64,27:7
64,28:7
64,29:7
64,30:3
64,33:12
64,34:7
64,35:14
64,41:3
64,42:16
64,43:14
64,44:14
64,45:14
64,46:14
64,50:14
64,51:14
64,52:4
64,53:4
64,54:14
64,55:14
64,62:14
64,63:4
64,70:7
68,1:10
68,2:10
68,3:10
68,4:10
68,5:10
68,6:14
68,7:14
68,8:6
68,10:6
68,11:7
68,12:15
68,13:10
68,14:15
68,16:14
68,17:15
68,18:7
68,19:15
68,20:10
68,21:19
68,22:10
68,23:19
68,24:10
68,25:4
68,26:14
68,27:14
68,28:14
68,29:14
68,30:10
68,31:4
68,32:4
68,33:19
68,34:14
68,35:21
68,36:7
68,37:7
68,38:7
68,39:7
68,40:7
68,41:10
68,42:23
68,43:21
68,44:21
68,45:21
68,46:21
68,47:7
68,48:7
68,49:3
68,50:21
68,51:21
68,52:11
68,53:11
68,54:21
68,55:21
68,56:3
68,57:3
68,58:3
68,59:3
68,60:3
68,61:3
68,62:21
68,63:11
68,64:7
68,65:23
68,66:23
68,67:23
68,69:6
68,70:14
69,1:4
69,2:4
69,3:4
69,4:4
69,5:4
69,6:8
69,7:8
69,11:1
69,12:9
69,13:4
69,14:9
69,16:8
69,17:9
69,18:1
69,19:9
69,20:4
69,21:13
69,22:4
69,23:13
69,24:4
69,26:8
69,27:8
69,28:8
69,29:8
69,30:4
69,33:13
69,34:8
69,35:15
69,36:1
69,37:1
69,38:1
69,39:1
69,40:1
69,41:4
69,42:17
69,43:15
69,44:15
69,45:15
69,46:15
69,47:1
69,48:1
69,50:15
69,51:15
69,52:5
69,53:5
69,54:15
69,55:15
69,62:15
69,63:5
69,64:1
69,65:17
69,66:17
69,67:17
69,70:8
70,12:1
70,14:1
70,17:1
70,19:1
70,21:5
70,23:5
70,33:5
70,35:7
70,42:9
70,43:7
70,44:7
70,45:7
70,46:7
70,50:7
70,51:7
70,54:7
70,55:7
70,62:7
70,65:9
70,66:9
70,67:9

<end>

<optimal SALBP-1 value>
16


<rand seed>
467321153

